
Gurobi 10.0.1 (linux64) logging started Sun Nov 26 16:57:26 2023

Set parameter LogFile to value "ArtificialInstance/ExperimentV2/S3T5K3/BaSp/gurobi91.txt"
Gurobi Optimizer version 10.0.1 build v10.0.1rc0 (linux64)

CPU model: AMD EPYC 7H12 64-Core Processor, instruction set [SSE2|AVX|AVX2]
Thread count: 128 physical cores, 128 logical processors, using up to 32 threads

Academic license 656792 - for non-commercial use only - registered to b.___@student.vu.nl
Optimize a model with 5280 rows, 8000 columns and 27360 nonzeros
Model fingerprint: 0x1485e8e5
Variable types: 0 continuous, 8000 integer (8000 binary)
Coefficient statistics:
  Matrix range     [1e+00, 1e+00]
  Objective range  [1e+00, 2e+01]
  Bounds range     [1e+00, 1e+00]
  RHS range        [1e+00, 1e+00]
Found heuristic solution: objective 641.0328958
Presolve time: 0.04s
Presolved: 5280 rows, 8000 columns, 27360 nonzeros
Variable types: 0 continuous, 8000 integer (8000 binary)

Root relaxation: objective 5.240124e+01, 4250 iterations, 0.08 seconds (0.05 work units)

    Nodes    |    Current Node    |     Objective Bounds      |     Work
 Expl Unexpl |  Obj  Depth IntInf | Incumbent    BestBd   Gap | It/Node Time

     0     0   52.40124    0 1261  641.03290   52.40124  91.8%     -    0s
H    0     0                     508.5713999   52.40124  89.7%     -    0s
H    0     0                     194.2531832   52.40124  73.0%     -    0s
H    0     0                     105.9826942   61.48604  42.0%     -    0s
     0     0   61.48604    0 1322  105.98269   61.48604  42.0%     -    0s
H    0     0                      99.5998519   61.48604  38.3%     -    0s
     0     0   61.48604    0 1321   99.59985   61.48604  38.3%     -    0s
     0     0   65.25905    0 1443   99.59985   65.25905  34.5%     -    1s
     0     0   65.26240    0 1514   99.59985   65.26240  34.5%     -    1s
     0     0   65.26545    0 1510   99.59985   65.26545  34.5%     -    1s
     0     0   65.26545    0 1511   99.59985   65.26545  34.5%     -    1s
H    0     0                      98.2364339   67.30444  31.5%     -    1s
     0     0   67.30444    0 1514   98.23643   67.30444  31.5%     -    1s
H    0     0                      94.9992134   67.30444  29.2%     -    1s
H    0     0                      87.6992289   67.40541  23.1%     -    1s
     0     0   67.40541    0 1590   87.69923   67.40541  23.1%     -    1s
     0     0   67.40541    0 1595   87.69923   67.40541  23.1%     -    1s
H    0     0                      87.6374159   68.28652  22.1%     -    2s
     0     0   68.28652    0 1791   87.63742   68.28652  22.1%     -    2s
     0     0   68.29965    0 1837   87.63742   68.29965  22.1%     -    2s
     0     0   68.29965    0 1839   87.63742   68.29965  22.1%     -    2s
H    0     0                      87.4862782   68.55152  21.6%     -    2s
     0     0   68.55152    0 1775   87.48628   68.55152  21.6%     -    2s
H    0     0                      85.0699298   68.55152  19.4%     -    2s
     0     0   68.61149    0 1625   85.06993   68.61149  19.3%     -    2s
     0     0   68.61275    0 1570   85.06993   68.61275  19.3%     -    2s
     0     0   68.85889    0 1759   85.06993   68.85889  19.1%     -    2s
     0     0   68.89697    0 1684   85.06993   68.89697  19.0%     -    3s
     0     0   68.89697    0 1686   85.06993   68.89697  19.0%     -    3s
     0     0   69.31043    0 1788   85.06993   69.31043  18.5%     -    3s
     0     0   69.38636    0 1903   85.06993   69.38636  18.4%     -    3s
     0     0   69.40379    0 1803   85.06993   69.40379  18.4%     -    3s
     0     0   69.40920    0 1831   85.06993   69.40920  18.4%     -    3s
     0     0   69.46057    0 1621   85.06993   69.46057  18.3%     -    3s
     0     0   69.53067    0 1606   85.06993   69.53067  18.3%     -    3s
     0     0   69.53439    0 1577   85.06993   69.53439  18.3%     -    3s
     0     0   69.67962    0 1808   85.06993   69.67962  18.1%     -    4s
     0     0   69.76056    0 1778   85.06993   69.76056  18.0%     -    4s
H    0     0                      82.5449139   69.77307  15.5%     -    4s
     0     0   69.77307    0 1728   82.54491   69.77307  15.5%     -    4s
     0     0   69.77409    0 1728   82.54491   69.77409  15.5%     -    4s
     0     0   69.80724    0 1590   82.54491   69.80724  15.4%     -    4s
     0     0   69.81520    0 1577   82.54491   69.81520  15.4%     -    4s
     0     0   69.81520    0 1556   82.54491   69.81520  15.4%     -    4s
     0     0   69.93884    0 1706   82.54491   69.93884  15.3%     -    4s
     0     0   69.99645    0 1709   82.54491   69.99645  15.2%     -    4s
     0     0   70.02805    0 1741   82.54491   70.02805  15.2%     -    4s
     0     0   70.02865    0 1759   82.54491   70.02865  15.2%     -    4s
     0     0   70.02979    0 1794   82.54491   70.02979  15.2%     -    4s
     0     0   70.03802    0 1764   82.54491   70.03802  15.2%     -    4s
     0     0   70.04945    0 1738   82.54491   70.04945  15.1%     -    4s
     0     0   70.04945    0 1750   82.54491   70.04945  15.1%     -    4s
     0     0   70.09502    0 1690   82.54491   70.09502  15.1%     -    5s
     0     0   70.09918    0 1713   82.54491   70.09918  15.1%     -    5s
     0     0   70.10970    0 1707   82.54491   70.10970  15.1%     -    5s
     0     0   70.12825    0 1705   82.54491   70.12825  15.0%     -    5s
     0     0   70.12929    0 1711   82.54491   70.12929  15.0%     -    5s
     0     0   70.12990    0 1704   82.54491   70.12990  15.0%     -    5s
     0     0   70.12990    0 1654   82.54491   70.12990  15.0%     -    5s
     0     2   70.12990    0 1537   82.54491   70.12990  15.0%     -    7s
    31    48   72.15202    5 1393   82.54491   71.91192  12.9%  1489   10s
H  594   187                      81.3834885   73.00603  10.3%   603   13s
H  622   187                      80.5666415   73.00603  9.38%   598   13s
  1156    60   79.54357   11  943   80.56664   73.41327  8.88%   482   15s
* 1557     0              32      80.2942144   80.29421  0.00%   424   16s

Cutting planes:
  Gomory: 13
  Zero half: 572
  RLT: 323

Explored 1567 nodes (697311 simplex iterations) in 16.42 seconds (14.06 work units)
Thread count was 32 (of 128 available processors)

Solution count 10: 80.2942 80.5666 81.3835 ... 98.2364

Optimal solution found (tolerance 1.00e-04)
Best objective 8.029421436778e+01, best bound 8.029421436778e+01, gap 0.0000%
